p cnf 762
-13 -237
-14 -240
-15 -243
-16 -246
-17 -249
-18 -252
-19 -255
-20 -258
-21 -261
-22 -264
-23 -267
-24 -270
-25 271
-26 272
-27 273
-28 274
-29 275
-30 -14
-30 -15
14 15 30
-31 -16
-31 -17
16 17 31
-32 -18
-32 -19
18 19 32
-33 -20
-33 -21
20 21 33
-34 -22
-34 -23
22 23 34
-35 -24
-35 -25
24 25 35
-36 -26
-36 -27
26 27 36
-37 -28
-37 -29
28 29 37
-38 30
-38 31
-30 -31 38
-39 32
-39 33
-32 -33 39
-40 34
-40 35
-34 -35 40
-41 36
-41 37
-36 -37 41
-42 38
-42 39
-38 -39 42
-43 40
-43 41
-40 -41 43
-44 42
-44 43
-42 -43 44
-45 -13
-45 14
13 -14 45
-46 13
-46 -14
-13 14 46
-47 -45
-47 -46
45 46 47
-48 13
-48 14
-13 -14 48
-49 -13
-49 -47
13 47 49
-50 13
-50 47
-13 -47 50
-51 -49
-51 -50
49 50 51
-52 13
-52 -47
-13 47 52
-53 -48
-53 -52
48 52 53
-54 -14
-54 15
14 -15 54
-55 14
-55 -15
-14 15 55
-56 -54
-56 -55
54 55 56
-57 14
-57 15
-14 -15 57
-58 53
-58 -56
-53 56 58
-59 -53
-59 56
53 -56 59
-60 -58
-60 -59
58 59 60
-61 -53
-61 -56
53 56 61
-62 -57
-62 -61
57 61 62
-63 -15
-63 16
15 -16 63
-64 15
-64 -16
-15 16 64
-65 -63
-65 -64
63 64 65
-66 15
-66 16
-15 -16 66
-67 62
-67 -65
-62 65 67
-68 -62
-68 65
62 -65 68
-69 -67
-69 -68
67 68 69
-70 -62
-70 -65
62 65 70
-71 -66
-71 -70
66 70 71
-72 -16
-72 17
16 -17 72
-73 16
-73 -17
-16 17 73
-74 -72
-74 -73
72 73 74
-75 16
-75 17
-16 -17 75
-76 71
-76 -74
-71 74 76
-77 -71
-77 74
71 -74 77
-78 -76
-78 -77
76 77 78
-79 -71
-79 -74
71 74 79
-80 -75
-80 -79
75 79 80
-81 -17
-81 18
17 -18 81
-82 17
-82 -18
-17 18 82
-83 -81
-83 -82
81 82 83
-84 17
-84 18
-17 -18 84
-85 80
-85 -83
-80 83 85
-86 -80
-86 83
80 -83 86
-87 -85
-87 -86
85 86 87
-88 -80
-88 -83
80 83 88
-89 -84
-89 -88
84 88 89
-90 -18
-90 19
18 -19 90
-91 18
-91 -19
-18 19 91
-92 -90
-92 -91
90 91 92
-93 18
-93 19
-18 -19 93
-94 89
-94 -92
-89 92 94
-95 -89
-95 92
89 -92 95
-96 -94
-96 -95
94 95 96
-97 -89
-97 -92
89 92 97
-98 -93
-98 -97
93 97 98
-99 -19
-99 20
19 -20 99
-100 19
-100 -20
-19 20 100
-101 -99
-101 -100
99 100 101
-102 19
-102 20
-19 -20 102
-103 98
-103 -101
-98 101 103
-104 -98
-104 101
98 -101 104
-105 -103
-105 -104
103 104 105
-106 -98
-106 -101
98 101 106
-107 -102
-107 -106
102 106 107
-108 -20
-108 21
20 -21 108
-109 20
-109 -21
-20 21 109
-110 -108
-110 -109
108 109 110
-111 20
-111 21
-20 -21 111
-112 107
-112 -110
-107 110 112
-113 -107
-113 110
107 -110 113
-114 -112
-114 -113
112 113 114
-115 -107
-115 -110
107 110 115
-116 -111
-116 -115
111 115 116
-117 -21
-117 22
21 -22 117
-118 21
-118 -22
-21 22 118
-119 -117
-119 -118
117 118 119
-120 21
-120 22
-21 -22 120
-121 116
-121 -119
-116 119 121
-122 -116
-122 119
116 -119 122
-123 -121
-123 -122
121 122 123
-124 -116
-124 -119
116 119 124
-125 -120
-125 -124
120 124 125
-126 -22
-126 23
22 -23 126
-127 22
-127 -23
-22 23 127
-128 -126
-128 -127
126 127 128
-129 22
-129 23
-22 -23 129
-130 125
-130 -128
-125 128 130
-131 -125
-131 128
125 -128 131
-132 -130
-132 -131
130 131 132
-133 -125
-133 -128
125 128 133
-134 -129
-134 -133
129 133 134
-135 -23
-135 24
23 -24 135
-136 23
-136 -24
-23 24 136
-137 -135
-137 -136
135 136 137
-138 23
-138 24
-23 -24 138
-139 134
-139 -137
-134 137 139
-140 -134
-140 137
134 -137 140
-141 -139
-141 -140
139 140 141
-142 -134
-142 -137
134 137 142
-143 -138
-143 -142
138 142 143
-144 -24
-144 25
24 -25 144
-145 24
-145 -25
-24 25 145
-146 -144
-146 -145
144 145 146
-147 24
-147 25
-24 -25 147
-148 143
-148 -146
-143 146 148
-149 -143
-149 146
143 -146 149
-150 -148
-150 -149
148 149 150
-151 -143
-151 -146
143 146 151
-152 -147
-152 -151
147 151 152
-153 -25
-153 26
25 -26 153
-154 25
-154 -26
-25 26 154
-155 -153
-155 -154
153 154 155
-156 25
-156 26
-25 -26 156
-157 152
-157 -155
-152 155 157
-158 -152
-158 155
152 -155 158
-159 -157
-159 -158
157 158 159
-160 -152
-160 -155
152 155 160
-161 -156
-161 -160
156 160 161
-162 -26
-162 27
26 -27 162
-163 26
-163 -27
-26 27 163
-164 -162
-164 -163
162 163 164
-165 26
-165 27
-26 -27 165
-166 161
-166 -164
-161 164 166
-167 -161
-167 164
161 -164 167
-168 -166
-168 -167
166 167 168
-169 -161
-169 -164
161 164 169
-170 -165
-170 -169
165 169 170
-171 -27
-171 28
27 -28 171
-172 27
-172 -28
-27 28 172
-173 -171
-173 -172
171 172 173
-174 27
-174 28
-27 -28 174
-175 170
-175 -173
-170 173 175
-176 -170
-176 173
170 -173 176
-177 -175
-177 -176
175 176 177
-178 -170
-178 -173
170 173 178
-179 -174
-179 -178
174 178 179
-180 -28
-180 29
28 -29 180
-181 28
-181 -29
-28 29 181
-182 -180
-182 -181
180 181 182
-183 28
-183 29
-28 -29 183
-184 179
-184 -182
-179 182 184
-185 -179
-185 182
179 -182 185
-186 -184
-186 -185
184 185 186
-187 -179
-187 -182
179 182 187
-188 -183
-188 -187
183 187 188
-189 13
-189 -51
-13 51 189
-190 -13
-190 15
13 -15 190
-191 -189
-191 -190
189 190 191
-192 13
-192 -60
-13 60 192
-193 -13
-193 16
13 -16 193
-194 -192
-194 -193
192 193 194
-195 13
-195 -69
-13 69 195
-196 -13
-196 17
13 -17 196
-197 -195
-197 -196
195 196 197
-198 13
-198 -78
-13 78 198
-199 -13
-199 18
13 -18 199
-200 -198
-200 -199
198 199 200
-201 13
-201 -87
-13 87 201
-202 -13
-202 19
13 -19 202
-203 -201
-203 -202
201 202 203
-204 13
-204 -96
-13 96 204
-205 -13
-205 20
13 -20 205
-206 -204
-206 -205
204 205 206
-207 13
-207 -105
-13 105 207
-208 -13
-208 21
13 -21 208
-209 -207
-209 -208
207 208 209
-210 13
-210 -114
-13 114 210
-211 -13
-211 22
13 -22 211
-212 -210
-212 -211
210 211 212
-213 13
-213 -123
-13 123 213
-214 -13
-214 23
13 -23 214
-215 -213
-215 -214
213 214 215
-216 13
-216 -132
-13 132 216
-217 -13
-217 24
13 -24 217
-218 -216
-218 -217
216 217 218
-219 13
-219 -141
-13 141 219
-220 -13
-220 25
13 -25 220
-221 -219
-221 -220
219 220 221
-222 13
-222 -150
-13 150 222
-223 -13
-223 26
13 -26 223
-224 -222
-224 -223
222 223 224
-225 13
-225 -159
-13 159 225
-226 -13
-226 27
13 -27 226
-227 -225
-227 -226
225 226 227
-228 13
-228 -168
-13 168 228
-229 -13
-229 28
13 -28 229
-230 -228
-230 -229
228 229 230
-231 13
-231 -177
-13 177 231
-232 -13
-232 29
13 -29 232
-233 -231
-233 -232
231 232 233
-234 13
-234 -186
-13 186 234
-235 1
-235 44
-1 -44 235
-236 -44
-236 45
44 -45 236
-237 -235
-237 -236
235 236 237
-238 2
-238 44
-2 -44 238
-239 -44
-239 -191
44 191 239
-240 -238
-240 -239
238 239 240
-241 3
-241 44
-3 -44 241
-242 -44
-242 -194
44 194 242
-243 -241
-243 -242
241 242 243
-244 4
-244 44
-4 -44 244
-245 -44
-245 -197
44 197 245
-246 -244
-246 -245
244 245 246
-247 5
-247 44
-5 -44 247
-248 -44
-248 -200
44 200 248
-249 -247
-249 -248
247 248 249
-250 6
-250 44
-6 -44 250
-251 -44
-251 -203
44 203 251
-252 -250
-252 -251
250 251 252
-253 7
-253 44
-7 -44 253
-254 -44
-254 -206
44 206 254
-255 -253
-255 -254
253 254 255
-256 8
-256 44
-8 -44 256
-257 -44
-257 -209
44 209 257
-258 -256
-258 -257
256 257 258
-259 9
-259 44
-9 -44 259
-260 -44
-260 -212
44 212 260
-261 -259
-261 -260
259 260 261
-262 10
-262 44
-10 -44 262
-263 -44
-263 -215
44 215 263
-264 -262
-264 -263
262 263 264
-265 11
-265 44
-11 -44 265
-266 -44
-266 -218
44 218 266
-267 -265
-267 -266
265 266 267
-268 12
-268 44
-12 -44 268
-269 -44
-269 -221
44 221 269
-270 -268
-270 -269
268 269 270
-271 -44
-271 -224
44 224 271
-272 -44
-272 -227
44 227 272
-273 -44
-273 -230
44 230 273
-274 -44
-274 -233
44 233 274
-275 -44
-275 234
44 -234 275
-276 -29
-276 188
29 -188 276
-277 13
-277 -276
-13 276 277
277
